modelo/comb.dat
# data
data;

##set s dimen 2;
##set ESTADOS := {1..48};
# all distances
table tab_distances IN "CSV" "distances.csv" : s <- [state1, state2], Dij~distance;

# distances from datacenters A and B, which correspond to states 
# of Florida and Oregon respectively.
table tab_florida_distances IN "CSV" "florida_distances.csv" : DAi~distance;
table tab_oregon_distances IN "CSV" "oregon_distances.csv" : DBi~distance;

# Parametros (o constantes):
# distancias entre ciudades
# param DISTANCIAS{i in Estados, j in Estados : i <> j};

# la distancia considerada para M es un numero arbitrariamente grande,
# sabiendo que no habra distancias mayores a estas porque es aproximadamente
# la distancia de Buenos Aires a Europa (por lo que seguro sera suficiente).
param M := 10000;

# Variables:

end;
