modelo/comb.sol
Problem:    comb
Rows:       116
Columns:    96 (64 integer, 64 binary)
Non-zeros:  432
Status:     INTEGER OPTIMAL
Objective:  z = 1457.681632 (MINimum)

   No.   Row name        Activity     Lower bound   Upper bound
------ ------------    ------------- ------------- -------------
     1 cota_sup_dcA[Alabama]
                             223.749                     223.749 
     2 cota_sup_dcA[Arizona]
                             817.982                     3090.64 
     3 cota_sup_dcA[Arkansas]
                                   0                     895.532 
     4 cota_sup_dcA[California]
                             415.951                     4130.54 
     5 cota_sup_dcA[Colorado]
                                   0                      2296.9 
     6 cota_sup_dcA[Connecticut]
                                   0                     1307.57 
     7 cota_sup_dcA[Florida]
                                   0                          -0 
     8 cota_sup_dcA[Oregon]
                                   0                      4291.9 
     9 cota_sup_dcB[Alabama]
                             223.749                     4077.38 
    10 cota_sup_dcB[Arizona]
                             817.982                     1348.72 
    11 cota_sup_dcB[Arkansas]
                                   0                     3417.83 
    12 cota_sup_dcB[California]
                             415.951                     415.951 
    13 cota_sup_dcB[Colorado]
                                   0                     2018.37 
    14 cota_sup_dcB[Connecticut]
                                   0                     5596.86 
    15 cota_sup_dcB[Florida]
                                   0                      4291.9 
    16 cota_sup_dcB[Oregon]
                                   0                          -0 
    17 cota_sup_dcC[Alabama]
                             -1853.4                          -0 
    18 cota_sup_dcC[Arizona]
                                   0                          -0 
    19 cota_sup_dcC[Arkansas]
                            -1408.12                          -0 
    20 cota_sup_dcC[California]
                            -1417.72                          -0 
    21 cota_sup_dcC[Colorado]
                                   0                          -0 
    22 cota_sup_dcC[Connecticut]
                            -3591.82                          -0 
    23 cota_sup_dcC[Florida]
                             -2296.9                          -0 
    24 cota_sup_dcC[Oregon]
                            -2018.37                          -0 
    25 cota_sup_dcD[Alabama]
                            -449.066                          -0 
    26 cota_sup_dcD[Arizona]
                            -1377.38                          -0 
    27 cota_sup_dcD[Arkansas]
                                   0                          -0 
    28 cota_sup_dcD[California]
                            -2824.64                          -0 
    29 cota_sup_dcD[Colorado]
                            -1408.12                          -0 
    30 cota_sup_dcD[Connecticut]
                            -2183.71                          -0 
    31 cota_sup_dcD[Florida]
                            -895.532                          -0 
    32 cota_sup_dcD[Oregon]
                            -3417.83                          -0 
    33 cota_sup_dcE[Alabama]
                            -1295.76                          -0 
    34 cota_sup_dcE[Arizona]
                            -3550.92                          -0 
    35 cota_sup_dcE[Arkansas]
                            -2183.71                          -0 
    36 cota_sup_dcE[California]
                             -5007.4                          -0 
    37 cota_sup_dcE[Colorado]
                            -3591.82                          -0 
    38 cota_sup_dcE[Connecticut]
                                   0                          -0 
    39 cota_sup_dcE[Florida]
                            -1307.57                          -0 
    40 cota_sup_dcE[Oregon]
                            -5596.86                          -0 
    41 cota_inf_dcA[Alabama]
                             223.749       223.749               
    42 cota_inf_dcA[Arizona]
                               10818       3090.64               
    43 cota_inf_dcA[Arkansas]
                               10000       895.532               
    44 cota_inf_dcA[California]
                               10416       4130.54               
    45 cota_inf_dcA[Colorado]
                               10000        2296.9               
    46 cota_inf_dcA[Connecticut]
                               10000       1307.57               
    47 cota_inf_dcA[Florida]
                                   0            -0               
    48 cota_inf_dcA[Oregon]
                               10000        4291.9               
    49 cota_inf_dcB[Alabama]
                             10223.7       4077.38               
    50 cota_inf_dcB[Arizona]
                               10818       1348.72               
    51 cota_inf_dcB[Arkansas]
                               10000       3417.83               
    52 cota_inf_dcB[California]
                             415.951       415.951               
    53 cota_inf_dcB[Colorado]
                               10000       2018.37               
    54 cota_inf_dcB[Connecticut]
                               10000       5596.86               
    55 cota_inf_dcB[Florida]
                               10000        4291.9               
    56 cota_inf_dcB[Oregon]
                                   0            -0               
    57 cota_inf_dcC[Alabama]
                              8146.6            -0               
    58 cota_inf_dcC[Arizona]
                                   0            -0               
    59 cota_inf_dcC[Arkansas]
                             8591.88            -0               
    60 cota_inf_dcC[California]
                             8582.28            -0               
    61 cota_inf_dcC[Colorado]
                                   0            -0               
    62 cota_inf_dcC[Connecticut]
                             6408.18            -0               
    63 cota_inf_dcC[Florida]
                              7703.1            -0               
    64 cota_inf_dcC[Oregon]
                             7981.63            -0               
    65 cota_inf_dcD[Alabama]
                             9550.93            -0               
    66 cota_inf_dcD[Arizona]
                             8622.62            -0               
    67 cota_inf_dcD[Arkansas]
                                   0            -0               
    68 cota_inf_dcD[California]
                             7175.36            -0               
    69 cota_inf_dcD[Colorado]
                             8591.88            -0               
    70 cota_inf_dcD[Connecticut]
                             7816.29            -0               
    71 cota_inf_dcD[Florida]
                             9104.47            -0               
    72 cota_inf_dcD[Oregon]
                             6582.17            -0               
    73 cota_inf_dcE[Alabama]
                             8704.24            -0               
    74 cota_inf_dcE[Arizona]
                             6449.08            -0               
    75 cota_inf_dcE[Arkansas]
                             7816.29            -0               
    76 cota_inf_dcE[California]
                              4992.6            -0               
    77 cota_inf_dcE[Colorado]
                             6408.18            -0               
    78 cota_inf_dcE[Connecticut]
                                   0            -0               
    79 cota_inf_dcE[Florida]
                             8692.43            -0               
    80 cota_inf_dcE[Oregon]
                             4403.14            -0               
    81 total_datacenters[Alabama]
                                   4             4             = 
    82 total_datacenters[Arizona]
                                   4             4             = 
    83 total_datacenters[Arkansas]
                                   4             4             = 
    84 total_datacenters[California]
                                   4             4             = 
    85 total_datacenters[Colorado]
                                   4             4             = 
    86 total_datacenters[Connecticut]
                                   4             4             = 
    87 total_datacenters[Florida]
                                   4             4             = 
    88 total_datacenters[Oregon]
                                   4             4             = 
    89 asoc_dcC                    1             1             = 
    90 asoc_dcD                    1             1             = 
    91 asoc_dcE                    1             1             = 
    92 asoc_dist_dcC_estadoi[Alabama]
                                   0            -0             = 
    93 asoc_dist_dcC_estadoi[Arizona]
                                   0            -0             = 
    94 asoc_dist_dcC_estadoi[Arkansas]
                                   0            -0             = 
    95 asoc_dist_dcC_estadoi[California]
                                   0            -0             = 
    96 asoc_dist_dcC_estadoi[Colorado]
                                   0            -0             = 
    97 asoc_dist_dcC_estadoi[Connecticut]
                                   0            -0             = 
    98 asoc_dist_dcC_estadoi[Florida]
                                   0            -0             = 
    99 asoc_dist_dcC_estadoi[Oregon]
                                   0            -0             = 
   100 asoc_dist_dcD_estadoi[Alabama]
                                   0            -0             = 
   101 asoc_dist_dcD_estadoi[Arizona]
                                   0            -0             = 
   102 asoc_dist_dcD_estadoi[Arkansas]
                                   0            -0             = 
   103 asoc_dist_dcD_estadoi[California]
                                   0            -0             = 
   104 asoc_dist_dcD_estadoi[Colorado]
                                   0            -0             = 
   105 asoc_dist_dcD_estadoi[Connecticut]
                                   0            -0             = 
   106 asoc_dist_dcD_estadoi[Florida]
                                   0            -0             = 
   107 asoc_dist_dcD_estadoi[Oregon]
                                   0            -0             = 
   108 asoc_dist_dcE_estadoi[Alabama]
                                   0            -0             = 
   109 asoc_dist_dcE_estadoi[Arizona]
                                   0            -0             = 
   110 asoc_dist_dcE_estadoi[Arkansas]
                                   0            -0             = 
   111 asoc_dist_dcE_estadoi[California]
                                   0            -0             = 
   112 asoc_dist_dcE_estadoi[Colorado]
                                   0            -0             = 
   113 asoc_dist_dcE_estadoi[Connecticut]
                                   0            -0             = 
   114 asoc_dist_dcE_estadoi[Florida]
                                   0            -0             = 
   115 asoc_dist_dcE_estadoi[Oregon]
                                   0            -0             = 
   116 z                     1457.68                             

   No. Column name       Activity     Lower bound   Upper bound
------ ------------    ------------- ------------- -------------
     1 Li[Alabama]           223.749             0               
     2 Li[Arizona]           817.982             0               
     3 Li[Arkansas]                0             0               
     4 Li[California]
                             415.951             0               
     5 Li[Colorado]                0             0               
     6 Li[Connecticut]
                                   0             0               
     7 Li[Florida]                 0             0               
     8 Li[Oregon]                  0             0               
     9 DCi[Alabama]          2077.15             0               
    10 DCi[Arizona]          817.982             0               
    11 DCi[Arkansas]
                             1408.12             0               
    12 DCi[California]
                             1833.67             0               
    13 DCi[Colorado]
                                   0             0               
    14 DCi[Connecticut]
                             3591.82             0               
    15 DCi[Florida]           2296.9             0               
    16 DCi[Oregon]           2018.37             0               
    17 DDi[Alabama]          672.815             0               
    18 DDi[Arizona]          2195.36             0               
    19 DDi[Arkansas]
                                   0             0               
    20 DDi[California]
                             3240.59             0               
    21 DDi[Colorado]
                             1408.12             0               
    22 DDi[Connecticut]
                             2183.71             0               
    23 DDi[Florida]          895.532             0               
    24 DDi[Oregon]           3417.83             0               
    25 DEi[Alabama]          1519.51             0               
    26 DEi[Arizona]           4368.9             0               
    27 DEi[Arkansas]
                             2183.71             0               
    28 DEi[California]
                             5423.35             0               
    29 DEi[Colorado]
                             3591.82             0               
    30 DEi[Connecticut]
                                   0             0               
    31 DEi[Florida]          1307.57             0               
    32 DEi[Oregon]           5596.86             0               
    33 YAi[Alabama] *              0             0             1 
    34 YAi[Arizona] *              1             0             1 
    35 YAi[Arkansas]
                    *              1             0             1 
    36 YAi[California]
                    *              1             0             1 
    37 YAi[Colorado]
                    *              1             0             1 
    38 YAi[Connecticut]
                    *              1             0             1 
    39 YAi[Florida] *              0             0             1 
    40 YAi[Oregon]  *              1             0             1 
    41 YBi[Alabama] *              1             0             1 
    42 YBi[Arizona] *              1             0             1 
    43 YBi[Arkansas]
                    *              1             0             1 
    44 YBi[California]
                    *              0             0             1 
    45 YBi[Colorado]
                    *              1             0             1 
    46 YBi[Connecticut]
                    *              1             0             1 
    47 YBi[Florida] *              1             0             1 
    48 YBi[Oregon]  *              0             0             1 
    49 YCi[Alabama] *              1             0             1 
    50 YCi[Arizona] *              0             0             1 
    51 YCi[Arkansas]
                    *              1             0             1 
    52 YCi[California]
                    *              1             0             1 
    53 YCi[Colorado]
                    *              0             0             1 
    54 YCi[Connecticut]
                    *              1             0             1 
    55 YCi[Florida] *              1             0             1 
    56 YCi[Oregon]  *              1             0             1 
    57 YDi[Alabama] *              1             0             1 
    58 YDi[Arizona] *              1             0             1 
    59 YDi[Arkansas]
                    *              0             0             1 
    60 YDi[California]
                    *              1             0             1 
    61 YDi[Colorado]
                    *              1             0             1 
    62 YDi[Connecticut]
                    *              1             0             1 
    63 YDi[Florida] *              1             0             1 
    64 YDi[Oregon]  *              1             0             1 
    65 YEi[Alabama] *              1             0             1 
    66 YEi[Arizona] *              1             0             1 
    67 YEi[Arkansas]
                    *              1             0             1 
    68 YEi[California]
                    *              1             0             1 
    69 YEi[Colorado]
                    *              1             0             1 
    70 YEi[Connecticut]
                    *              0             0             1 
    71 YEi[Florida] *              1             0             1 
    72 YEi[Oregon]  *              1             0             1 
    73 YCei[Alabama]
                    *              0             0             1 
    74 YCei[Arizona]
                    *              0             0             1 
    75 YCei[Arkansas]
                    *              0             0             1 
    76 YCei[California]
                    *              0             0             1 
    77 YCei[Colorado]
                    *              1             0             1 
    78 YCei[Connecticut]
                    *              0             0             1 
    79 YCei[Florida]
                    *              0             0             1 
    80 YCei[Oregon] *              0             0             1 
    81 YDei[Alabama]
                    *              0             0             1 
    82 YDei[Arizona]
                    *              0             0             1 
    83 YDei[Arkansas]
                    *              1             0             1 
    84 YDei[California]
                    *              0             0             1 
    85 YDei[Colorado]
                    *              0             0             1 
    86 YDei[Connecticut]
                    *              0             0             1 
    87 YDei[Florida]
                    *              0             0             1 
    88 YDei[Oregon] *              0             0             1 
    89 YEei[Alabama]
                    *              0             0             1 
    90 YEei[Arizona]
                    *              0             0             1 
    91 YEei[Arkansas]
                    *              0             0             1 
    92 YEei[California]
                    *              0             0             1 
    93 YEei[Colorado]
                    *              0             0             1 
    94 YEei[Connecticut]
                    *              1             0             1 
    95 YEei[Florida]
                    *              0             0             1 
    96 YEei[Oregon] *              0             0             1 

Integer feasibility conditions:

KKT.PE: max.abs.err = 1.82e-12 on row 74
        max.rel.err = 8.41e-17 on row 74
        High quality

KKT.PB: max.abs.err = 0.00e+00 on row 0
        max.rel.err = 0.00e+00 on row 0
        High quality

End of output
